Route #1: 51 6 2
Route #2: 28 21
Route #3: 47 36 37 20
Route #4: 15 5 48
Route #5: 30 29 45
Route #6: 27 13 54 19
Route #7: 14 53
Route #8: 11 38
Route #9: 10 31 25
Route #10: 50 18 24 49
Route #11: 23 43 41 42 22
Route #12: 33 1 16
Route #13: 3 44 32
Route #14: 17 40 12
Route #15: 39 9 26
Route #16: 46 8 35 7
Route #17: 34 52 4
Cost 1002